c FILE /home/rafael/Documents/HappySet/MIHS/inputs/happygen/output/graph_d_regular_k4_p0.2_v100_20241127_084026.txt
c SOURCE This is a d-regular graph formed for the happy graph colouring problem.
c DESCRIPTION It was generated using the problem generator of Rhyd Lewis
c
c GRAPH STATS
c Seed                             = 6836142
c Number of Nodes                  = 100
c Number of colours k              = 4
c Number of pre-assignments        = 20
c Degree of all vertices           = 6
c Density                          = 0.0606061
c 
c The degrees of nodes 1 to 100, respectively, are as follows 
c [6, 6, 6, 6, 6, 6, 6, 6, 6, 6, 6, 6, 6, 6, 6, 6, 6, 6, 6, 6, 6, 6, 6, 6, 6, 6, 
c  6, 6, 6, 6, 6, 6, 6, 6, 6, 6, 6, 6, 6, 6, 6, 6, 6, 6, 6, 6, 6, 6, 6, 6, 6, 
c  6, 6, 6, 6, 6, 6, 6, 6, 6, 6, 6, 6, 6, 6, 6, 6, 6, 6, 6, 6, 6, 6, 6, 6, 6, 
c  6, 6, 6, 6, 6, 6, 6, 6, 6, 6, 6, 6, 6, 6, 6, 6, 6, 6, 6, 6, 6, 6, 6, 6] 
c  
p edge 100 300 4
e 1 5
e 1 14
e 1 24
e 1 56
e 1 69
e 1 92
e 2 13
e 2 14
e 2 24
e 2 43
e 2 55
e 2 95
e 3 21
e 3 73
e 3 76
e 3 85
e 3 86
e 3 98
e 4 5
e 4 13
e 4 32
e 4 39
e 4 73
e 4 83
e 5 9
e 5 30
e 5 74
e 5 88
e 6 12
e 6 18
e 6 52
e 6 54
e 6 82
e 6 83
e 7 23
e 7 52
e 7 77
e 7 78
e 7 88
e 7 91
e 8 11
e 8 17
e 8 20
e 8 55
e 8 77
e 8 85
e 9 29
e 9 63
e 9 76
e 9 79
e 9 87
e 10 11
e 10 69
e 10 79
e 10 85
e 10 87
e 10 99
e 11 46
e 11 69
e 11 81
e 11 83
e 12 30
e 12 44
e 12 52
e 12 69
e 12 75
e 13 42
e 13 44
e 13 54
e 13 68
e 14 48
e 14 53
e 14 66
e 14 83
e 15 27
e 15 28
e 15 40
e 15 89
e 15 91
e 15 97
e 16 34
e 16 45
e 16 64
e 16 83
e 16 87
e 16 90
e 17 18
e 17 45
e 17 64
e 17 89
e 17 96
e 18 39
e 18 67
e 18 76
e 18 95
e 19 21
e 19 23
e 19 29
e 19 44
e 19 50
e 19 51
e 20 54
e 20 75
e 20 81
e 20 88
e 20 93
e 21 23
e 21 39
e 21 52
e 21 78
e 22 38
e 22 40
e 22 62
e 22 66
e 22 74
e 22 84
e 23 25
e 23 83
e 23 89
e 24 28
e 24 59
e 24 75
e 24 98
e 25 33
e 25 47
e 25 71
e 25 84
e 25 92
e 26 40
e 26 48
e 26 62
e 26 72
e 26 93
e 26 95
e 27 61
e 27 68
e 27 70
e 27 79
e 27 94
e 28 40
e 28 48
e 28 49
e 28 62
e 29 33
e 29 36
e 29 63
e 29 65
e 30 36
e 30 93
e 30 97
e 30 99
e 31 42
e 31 44
e 31 59
e 31 74
e 31 79
e 31 86
e 32 58
e 32 88
e 32 94
e 32 96
e 32 97
e 33 38
e 33 47
e 33 93
e 33 100
e 34 37
e 34 52
e 34 68
e 34 71
e 34 89
e 35 38
e 35 43
e 35 62
e 35 88
e 35 96
e 35 98
e 36 67
e 36 69
e 36 90
e 36 92
e 37 42
e 37 70
e 37 72
e 37 75
e 37 81
e 38 39
e 38 46
e 38 66
e 39 67
e 39 80
e 40 64
e 40 77
e 41 43
e 41 46
e 41 47
e 41 56
e 41 64
e 41 74
e 42 51
e 42 65
e 42 97
e 43 82
e 43 96
e 43 99
e 44 61
e 44 65
e 45 49
e 45 53
e 45 78
e 45 93
e 46 63
e 46 68
e 46 94
e 47 63
e 47 82
e 47 86
e 48 53
e 48 69
e 48 76
e 49 51
e 49 61
e 49 65
e 49 70
e 50 58
e 50 63
e 50 71
e 50 89
e 50 97
e 51 54
e 51 57
e 51 59
e 52 80
e 53 67
e 53 73
e 53 76
e 54 58
e 54 72
e 55 61
e 55 68
e 55 80
e 55 100
e 56 59
e 56 84
e 56 87
e 56 91
e 57 58
e 57 60
e 57 86
e 57 98
e 57 100
e 58 70
e 58 87
e 59 66
e 59 85
e 60 61
e 60 66
e 60 80
e 60 84
e 60 99
e 61 73
e 62 81
e 62 98
e 63 85
e 64 67
e 64 91
e 65 74
e 65 78
e 66 73
e 67 84
e 68 99
e 70 93
e 70 96
e 71 74
e 71 88
e 71 90
e 72 77
e 72 81
e 72 92
e 73 90
e 75 77
e 75 82
e 76 84
e 77 94
e 78 81
e 78 95
e 79 82
e 79 86
e 80 96
e 80 99
e 82 85
e 86 89
e 87 94
e 90 94
e 90 100
e 91 92
e 91 98
e 92 95
e 95 100
e 97 100
n 10 3
n 20 3
n 29 2
n 30 1
n 31 4
n 33 2
n 34 4
n 43 4
n 49 2
n 57 4
n 59 4
n 62 3
n 74 4
n 81 3
n 82 4
n 87 3
n 88 3
n 89 4
n 92 1
n 95 1
